p cnf 40 125
1 2 3 4 0
5 6 7 8 0
9 10 11 12 0
13 14 15 16 0
17 18 19 20 0
-1 -5 0
-1 -9 0
-1 -13 0
-1 -17 0
-5 -9 0
-5 -13 0
-5 -17 0
-9 -13 0
-9 -17 0
-13 -17 0
-2 -6 0
-2 -10 0
-2 -14 0
-2 -18 0
-6 -10 0
-6 -14 0
-6 -18 0
-10 -14 0
-10 -18 0
-14 -18 0
-3 -7 0
-3 -11 0
-3 -15 0
-3 -19 0
-7 -11 0
-7 -15 0
-7 -19 0
-11 -15 0
-11 -19 0
-15 -19 0
-4 -8 0
-4 -12 0
-4 -16 0
-4 -20 0
-8 -12 0
-8 -16 0
-8 -20 0
-12 -16 0
-12 -20 0
-16 -20 0
21 -1 0
21 -4 -17 0
-21 1 4 0
-21 1 17 0
22 -2 0
22 -4 -18 0
-22 2 4 0
-22 2 18 0
23 -3 0
23 -4 -19 0
-23 3 4 0
-23 3 19 0
24 -5 0
24 -8 -17 0
-24 5 8 0
-24 5 17 0
25 -6 0
25 -8 -18 0
-25 6 8 0
-25 6 18 0
26 -7 0
26 -8 -19 0
-26 7 8 0
-26 7 19 0
27 -9 0
27 -12 -17 0
-27 9 12 0
-27 9 17 0
28 -10 0
28 -12 -18 0
-28 10 12 0
-28 10 18 0
29 -11 0
29 -12 -19 0
-29 11 12 0
-29 11 19 0
30 -13 0
30 -16 -17 0
-30 13 16 0
-30 13 17 0
31 -14 0
31 -16 -18 0
-31 14 16 0
-31 14 18 0
32 -15 0
32 -16 -19 0
-32 15 16 0
-32 15 19 0
33 -21 0
33 -23 -30 0
-33 21 23 0
-33 21 30 0
34 -22 0
34 -23 -31 0
-34 22 23 0
-34 22 31 0
35 -24 0
35 -26 -30 0
-35 24 26 0
-35 24 30 0
36 -25 0
36 -26 -31 0
-36 25 26 0
-36 25 31 0
37 -27 0
37 -29 -30 0
-37 27 29 0
-37 27 30 0
38 -28 0
38 -29 -31 0
-38 28 29 0
-38 28 31 0
39 -33 0
39 -34 -37 0
-39 33 34 0
-39 33 37 0
40 -35 0
40 -36 -37 0
-40 35 36 0
-40 35 37 0
